data/benchmarks/bayes/90-14-2-q.cnf
p cnf 924 803
c weights 0.230677 0.769323 1 1 1 1 1 1 1 1 1 1 1 1 1 1 1 1 1 1 1 1 1 1 1 1 1 1 1 1 1 1 1 1 1 1 1 1 1 1 1 1 1 1 1 1 1 1 1 1 1 1 1 1 1 1 1 1 1 1 1 1 1 1 1 1 1 1 1 1 1 1 1 1 1 1 1 1 1 1 1 1 1 1 1 1 1 1 1 1 1 1 1 1 1 1 1 1 1 1 1 1 1 1 1 1 1 1 1 1 1 1 1 1 1 1 1 1 1 1 1 1 1 1 1 1 1 1 1 1 1 1 1 1 1 1 1 1 1 1 1 1 1 1 1 1 1 1 1 1 1 1 1 1 1 1 1 1 1 1 1 1 1 1 1 1 1 1 1 1 1 1 1 1 1 1 1 1 1 1 1 1 1 1 1 1 1 1 1 1 1 1 1 1 1 1 1 1 1 1 1 1 1 1 1 1 1 1 1 1 1 1 1 1 1 1 1 1 1 1 1 1 1 1 1 1 1 1 1 1 1 1 1 1 1 1 1 1 1 1 1 1 1 1 1 1 1 1 1 1 1 1 1 1 1 1 1 1 1 1 1 1 1 1 1 1 1 1 1 1 1 1 1 1 1 1 1 1 1 1 1 1 1 1 1 1 1 1 1 1 1 1 1 1 1 1 1 1 1 1 1 1 1 1 1 1 1 1 1 1 1 1 1 1 1 1 1 1 1 1 1 1 1 1 1 1 1 1 1 1 1 1 1 1 1 1 1 1 1 1 1 1 1 1 1 1 1 1 1 1 1 1 1 1 1 1 1 1 1 1 1 1 1 1 1 1 1 1 1 1 1 1 1 1 1 1 1 1 1 1 1 1 1 1 1 1 1 1 1 1 1 1 0.5 0.5 0.5 0.5 0.709837 0.29016299999999995 0.283356 0.7166440000000001 0.5 0.5 0.5 0.5 0.5 0.5 0.5 0.5 0.5 0.5 0.5 0.5 0.5 0.5 0.5 0.5 0.581388 0.418612 0.643603 0.35639699999999996 0.5 0.5 0.5 0.5 0.5 0.5 0.5 0.5 0.5 0.5 0.5 0.5 0.5 0.5 0.5 0.5 0.5 0.5 0.5 0.5 0.5 0.5 0.5 0.5 0.5 0.5 0.5 0.5 0.5 0.5 0.5 0.5 0.5 0.5 0.5 0.5 0.5 0.5 0.5 0.5 0.5 0.5 0.5 0.5 0.5 0.5 0.5 0.5 0.5 0.5 0.5 0.5 0.5 0.5 0.5 0.5 0.5 0.5 0.5 0.5 0.5 0.5 0.5 0.5 0.5 0.5 0.5 0.5 0.5 0.5 0.5 0.5 0.5 0.5 0.5 0.5 0.5 0.5 0.5 0.5 0.5 0.5 0.5 0.5 0.5 0.5 0.5 0.5 0.5 0.5 0.5 0.5 0.5 0.5 0.5 0.5 0.5 0.5 0.5 0.5 0.5 0.5 0.5 0.5 0.5 0.5 0.5 0.5 0.5 0.5 0.5 0.5 0.5 0.5 0.5 0.5 0.249714 0.750286 0.784191 0.21580900000000003 0.471313 0.528687 0.679507 0.32049300000000003 0.5 0.5 0.5 0.5 0.5 0.5 0.5 0.5 0.5 0.5 0.5 0.5 0.5 0.5 0.5 0.5 0.5 0.5 0.5 0.5 0.5 0.5 0.5 0.5 0.5 0.5 0.5 0.5 0.5 0.5 0.5 0.5 0.5 0.5 0.5 0.5 0.5 0.5 0.5 0.5 0.5 0.5 0.5 0.5 0.5 0.5 0.5 0.5 0.5 0.5 0.5 0.5 0.5 0.5 0.5 0.5 0.5 0.5 0.5 0.5 0.5 0.5 0.5 0.5 0.5 0.5 0.5 0.5 0.5 0.5 0.5 0.5 0.5 0.5 0.5 0.5 0.5 0.5 0.5 0.5 0.5 0.5 0.5 0.5 0.162558 0.837442 0.193515 0.806485 0.307523 0.692477 0.0106713 0.9893287 0.5 0.5 0.5 0.5 0.5 0.5 0.5 0.5 0.5 0.5 0.5 0.5 0.5 0.5 0.5 0.5 0.5 0.5 0.5 0.5 0.5 0.5 0.5 0.5 0.5 0.5 0.5 0.5 0.223733 0.776267 0.492405 0.507595 0.051893 0.948107 0.0669124 0.9330876 0.5 0.5 0.5 0.5 0.5 0.5 0.5 0.5 0.5 0.5 0.5 0.5 0.5 0.5 0.5 0.5 0.5 0.5 0.5 0.5 0.5 0.5 0.5 0.5 0.5 0.5 0.5 0.5 0.5 0.5 0.5 0.5 0.5 0.5 0.5 0.5 0.5 0.5 0.5 0.5 0.5 0.5 0.5 0.5 0.5 0.5 0.5 0.5 0.5 0.5 0.5 0.5 0.5 0.5 0.5 0.5 0.5 0.5 0.5 0.5 0.5 0.5 0.5 0.5 0.5 0.5 0.5 0.5 0.5 0.5 0.5 0.5 0.5 0.5 0.5 0.5 0.5 0.5 0.5 0.5 0.5 0.5 0.5 0.5 0.5 0.5 0.5 0.5 0.5 0.5 0.5 0.5 0.5 0.5 0.5 0.5 0.5 0.5 0.5 0.5 0.5 0.5 0.5 0.5 0.5 0.5 0.5 0.5 0.5 0.5 0.5 0.5 0.5 0.5 0.5 0.5 0.5 0.5 0.5 0.5 0.5 0.5 0.5 0.5 0.5 0.5 0.5 0.5 0.5 0.5 0.5 0.5 0.5 0.5 0.5 0.5 0.5 0.5 0.5 0.5 0.717803 0.28219700000000003 0.162645 0.837355 0.547679 0.452321 0.386462 0.6135379999999999 0.5 0.5 0.5 0.5 0.5 0.5 0.5 0.5 0.5 0.5 0.5 0.5 0.5 0.5 0.5 0.5 0.5 0.5 0.5 0.5 0.5 0.5 0.5 0.5 0.5 0.5 0.5 0.5 0.5 0.5 0.5 0.5 0.5 0.5 0.5 0.5 0.5 0.5 0.5 0.5 0.5 0.5 0.5 0.5 0.5 0.5 0.5 0.5 0.5 0.5 0.5 0.5 0.5 0.5 0.5 0.5 0.5 0.5 0.5 0.5 0.5 0.5 0.5 0.5 0.5 0.5 0.5 0.5 0.5 0.5 0.5 0.5 0.5 0.5 0.5 0.5 0.5 0.5 0.5 0.5 0.5 0.5 0.5 0.5 0.5 0.5 0.5 0.5 0.5 0.5 0.5 0.5 0.5 0.5 0.5 0.5 0.5 0.5 0.5 0.5 0.5 0.5 0.5 0.5 0.5 0.5 0.5 0.5 0.5 0.5 0.5 0.5 0.5 0.5 0.5 0.5 0.5 0.5 0.5 0.5 0.5 0.5 0.5 0.5 0.5 0.5 0.5 0.5 0.5 0.5 0.5 0.5 0.5 0.5 0.5 0.5 0.5 0.5 0.5 0.5 0.5 0.5 0.5 0.5 0.5 0.5 0.5 0.5 0.5 0.5 0.5 0.5 0.5 0.5 0.5 0.5 0.5 0.5 0.5 0.5 0.5 0.5 0.5 0.5 0.5 0.5 0.5 0.5 0.5 0.5 0.5 0.5 0.5 0.5 0.5 0.5 0.119491 0.880509 0.434238 0.565762 0.0367535 0.9632465 0.457927 0.542073 0.5 0.5 0.5 0.5 0.5 0.5 0.5 0.5 0.5 0.5 0.5 0.5 0.5 0.5 0.5 0.5 0.5 0.5 0.5 0.5 0.5 0.5 0.5 0.5 0.5 0.5 0.5 0.5 0.5 0.5 0.5 0.5 0.5 0.5 0.5 0.5 0.5 0.5 0.5 0.5 0.975802 0.024198000000000053 0.0653142 0.9346858 0.359923 0.640077 0.710581 0.289419 0.5 0.5 0.5 0.5 0.5 0.5 0.5 0.5 0.5 0.5 0.5 0.5 0.5 0.5 0.5 0.5 0.5 0.5 0.5 0.5 0.5 0.5 0.5 0.5 0.5 0.5 0.5 0.5 0.5 0.5 0.5 0.5 0.5 0.5 0.5 0.5 0.5 0.5 0.5 0.5 0.5 0.5 0.5 0.5 0.5 0.5 0.5 0.5 0.5 0.5 0.5 0.5 0.5 0.5 0.5 0.5 0.5 0.5 0.5 0.5 0.625372 0.37462799999999996 0.315303 0.684697 0.100445 0.899555 0.380675 0.619325 0.5 0.5 0.5 0.5 0.5 0.5 0.5 0.5 0.5 0.5 0.5 0.5 0.5 0.5 0.5 0.5 0.5 0.5 0.5 0.5 0.5 0.5 0.5 0.5 0.5 0.5 0.5 0.5 0.5 0.5 0.5 0.5 0.5 0.5 0.5 0.5 0.5 0.5 0.5 0.5 0.5 0.5 0.5 0.5 0.5 0.5 0.5 0.5 0.5 0.5 0.5 0.5 0.5 0.5 0.5 0.5 0.5 0.5 0.5 0.5 0.5 0.5 0.5 0.5 0.5 0.5 0.5 0.5 0.5 0.5 0.5 0.5 0.5 0.5 0.5 0.5 0.5 0.5 0.5 0.5 0.5 0.5 0.5 0.5 0.5 0.5 0.5 0.5 0.5 0.5 0.5 0.5 0.619674 0.38032600000000005 0.946644 0.05335599999999996 0.851822 0.14817800000000003 0.0931438 0.9068562 0.5 0.5 0.5 0.5 0.5 0.5 0.5 0.5 0.5 0.5 0.5 0.5 0.5 0.5 0.5 0.5 0.5 0.5 0.5 0.5 0.5 0.5 0.5 0.5 0.5 0.5 0.5 0.5 0.5 0.5 0.5 0.5 0.5 0.5 0.5 0.5 0.5 0.5 0.5 0.5 0.5 0.5 0.5 0.5 0.5 0.5 0.5 0.5 0.5 0.5 0.5 0.5 0.5 0.5 0.5 0.5 0.87348 0.12651999999999997 0.287929 0.712071 0.66331 0.33669000000000004 0.345324 0.654676 0.763178 0.23682199999999998 0.454613 0.5453870000000001 0.449652 0.5503480000000001 0.692326 0.307674 0.5 0.5 0.5 0.5 0.5 0.5 0.5 0.5 0.5 0.5 0.5 0.5 0.5 0.5 0.5 0.5 0.5 0.5 0.5 0.5 0.5 0.5 0.5 0.5 0.5 0.5 0.5 0.5 0.5 0.5 0.5 0.5 0.5 0.5 0.5 0.5 0.278929 0.721071 0.350551 0.6494489999999999 0.300568 0.699432 0.266546 0.733454 0.5 0.5 0.5 0.5 0.5 0.5 0.5 0.5 0.5 0.5 0.5 0.5 0.5 0.5 0.5 0.5 0.5 0.5 0.5 0.5 0.5 0.5 0.5 0.5 0.5 0.5 0.5 0.5 0.5 0.5 0.5 0.5 0.5 0.5 0.5 0.5 0.5 0.5 0.5 0.5 0.5 0.5 0.5 0.5 0.5 0.5 0.5 0.5 0.843526 0.156474 0.463403 0.536597 0.698045 0.301955 0.649581 0.35041900000000004 0.5 0.5 0.5 0.5 0.5 0.5 0.5 0.5 0.5 0.5 0.5 0.5 0.5 0.5 0.5 0.5 0.5 0.5 0.5 0.5 0.5 0.5 0.5 0.5 0.5 0.5 0.5 0.5 0.5 0.5 0.5 0.5 0.5 0.5 0.5 0.5 0.0662374 0.9337626 0.909353 0.09064700000000003 0.814713 0.18528699999999998 0.52964 0.47036 0.5 0.5 0.5 0.5 0.5 0.5 0.5 0.5 0.5 0.5 0.5 0.5 0.5 0.5 0.5 0.5 0.5 0.5 0.5 0.5 0.5 0.5 0.5 0.5 0.5 0.5 0.5 0.5 0.5 0.5 0.5 0.5 0.5 0.5 0.5 0.5 0.5 0.5 0.5 0.5 0.5 0.5 0.5 0.5 0.5 0.5 0.5 0.5 0.5 0.5 0.5 0.5 0.5 0.5 0.5 0.5 0.217224 0.782776 0.620872 0.379128 0.981523 0.018476999999999966 0.00889704 0.99110296 0.5 0.5 0.5 0.5 0.5 0.5 0.5 0.5 0.5 0.5 0.5 0.5 0.5 0.5 0.5 0.5 0.5 0.5 0.5 0.5 0.5 0.5 0.5 0.5 0.5 0.5 0.5 0.5 0.5 0.5 0.5 0.5 0.5 0.5 0.5 0.5 0.5 0.5 0.5 0.5 0.5 0.5 0.5 0.5 0.5 0.5 0.5 0.5 0.5 0.5 0.5 0.5 0.5 0.5 0.5 0.5 0.5 0.5 0.5 0.5 0.5 0.5 0.5 0.5 0.5 0.5 0.5 0.5 0.5 0.5 0.5 0.5 0.5 0.5 0.5 0.5 0.5 0.5 0.5 0.5 0.5 0.5 0.5 0.5 0.5 0.5 0.5 0.5 0.5 0.5 0.5 0.5 0.474064 0.525936 0.546918 0.453082 0.882711 0.11728899999999998 0.0763264 0.9236736 0.67025 0.32975 0.843709 0.15629099999999996 0.436387 0.5636129999999999 0.7928 0.20720000000000005 0.5 0.5 0.5 0.5 0.5 0.5 0.5 0.5 0.5 0.5 0.5 0.5 0.5 0.5 0.5 0.5 0.5 0.5 0.5 0.5 0.5 0.5 0.5 0.5 0.849027 0.15097300000000002 0.693345 0.306655 0.5 0.5 0.5 0.5 0.5 0.5 0.5 0.5 0.5 0.5 0.5 0.5 0.5 0.5 0.5 0.5 0.5 0.5 0.5 0.5 0.5 0.5 0.5 0.5 0.5 0.5 0.5 0.5 0.5 0.5 0.5 0.5 0.5 0.5 0.5 0.5 0.5 0.5 0.5 0.5 0.5 0.5 0.5 0.5 0.5 0.5 0.5 0.5 0.5 0.5 0.5 0.5 0.5 0.5 0.5 0.5 0.5 0.5 0.5 0.5 0.5 0.5 0.5 0.5 0.5 0.5 0.5 0.5 0.5 0.5 0.5 0.5 0.31645 0.68355 0.754224 0.245776 0.0901587 0.9098413 0.78391 0.21609 0.5 0.5 0.5 0.5 0.5 0.5 0.5 0.5 0.5 0.5 0.5 0.5 0.5 0.5 0.5 0.5 0.5 0.5 0.5 0.5 0.5 0.5 0.5 0.5 0.5 0.5 0.5 0.5 0.5 0.5 0.5 0.5 0.5 0.5 0.5 0.5 0.5 0.5 0.5 0.5 0.5 0.5 0.5 0.5 0.5 0.5 0.5 0.5 0.5 0.5 0.5 0.5 0.5 0.5 0.5 0.5 0.5 0.5 0.5 0.5 0.5 0.5 0.5 0.5 0.5 0.5 0.5 0.5 0.5 0.5 0.5 0.5 0.5 0.5 0.5 0.5 0.5 0.5 0.5 0.5 0.5 0.5 0.5 0.5 0.5 0.5 0.5 0.5 0.5 0.5 0.5 0.5 0.5 0.5 0.5 0.5 0.5 0.5 0.5 0.5 0.5 0.5 0.5 0.5 0.5 0.5 0.5 0.5 0.5 0.5 0.5 0.5 0.5 0.5 0.5 0.5 0.5 0.5 0.5 0.5 0.5 0.5 0.5 0.5 0.5 0.5 0.5 0.5 0.5 0.5 0.5 0.5
-1 -2 0
1 2 0
-2 -199 3 0
-2 199 -3 0
2 -200 3 0
2 200 -3 0
-3 4 0
3 -4 0
-4 -5 0
4 5 0
-5 6 0
5 -6 0
-6 -7 0
6 7 0
-7 -209 8 0
-7 209 -8 0
7 -210 8 0
7 210 -8 0
-8 9 0
8 -9 0
-9 10 0
9 -10 0
-10 -11 0
10 11 0
-11 12 0
11 -12 0
-12 -13 0
12 13 0
-13 14 0
13 -14 0
-1 15 0
1 -15 0
-15 -2 16 0
-15 2 16 0
15 -2 -16 0
15 2 -16 0
-16 -3 -17 0
-16 3 17 0
16 -3 -17 0
16 3 17 0
-17 -4 18 0
-17 4 -18 0
17 -4 -18 0
17 4 18 0
-18 -5 19 0
-18 5 19 0
18 -5 19 0
18 5 -19 0
-19 -6 -20 0
-19 6 20 0
19 -6 -20 0
19 6 20 0
-20 -7 -21 0
-20 7 -21 0
20 -7 -21 0
20 7 21 0
-21 -8 22 0
-21 8 -22 0
21 -8 -22 0
21 8 -22 0
-22 -9 23 0
-22 9 23 0
22 -9 23 0
22 9 -23 0
-23 -10 24 0
-23 10 -24 0
23 -10 -24 0
23 10 -24 0
-24 -11 25 0
-24 11 25 0
24 -11 -25 0
24 11 25 0
-25 -12 26 0
-25 12 26 0
25 -12 -26 0
25 12 -26 0
-26 -13 -269 27 0
-26 -13 269 -27 0
-26 13 -270 27 0
-26 13 270 -27 0
26 -13 -271 27 0
26 -13 271 -27 0
26 13 -272 27 0
26 13 272 -27 0
-27 -14 -28 0
-27 14 28 0
27 -14 28 0
27 14 -28 0
-15 -29 0
15 29 0
-29 -16 30 0
-29 16 -30 0
29 -16 -30 0
29 16 -30 0
-30 -17 -31 0
-30 17 -31 0
30 -17 31 0
30 17 -31 0
-31 -18 32 0
-31 18 -32 0
31 -18 -32 0
31 18 -32 0
-32 -19 33 0
-32 19 33 0
32 -19 33 0
32 19 -33 0
-33 -20 34 0
-33 20 34 0
33 -20 34 0
33 20 -34 0
-34 -21 -35 0
-34 21 -35 0
34 -21 -35 0
34 21 35 0
-35 -22 -36 0
-35 22 -36 0
35 -22 36 0
35 22 -36 0
-36 -23 -37 0
-36 23 -37 0
36 -23 -37 0
36 23 37 0
-37 -24 38 0
-37 24 -38 0
37 -24 -38 0
37 24 38 0
-38 -25 -315 39 0
-38 -25 315 -39 0
-38 25 -316 39 0
-38 25 316 -39 0
38 -25 -317 39 0
38 -25 317 -39 0
38 25 -318 39 0
38 25 318 -39 0
-39 -26 40 0
-39 26 -40 0
39 -26 40 0
39 26 -40 0
-40 -27 41 0
-40 27 41 0
40 -27 -41 0
40 27 41 0
-41 -28 42 0
-41 28 42 0
41 -28 -42 0
41 28 -42 0
-29 43 0
29 -43 0
-43 -30 -333 44 0
-43 -30 333 -44 0
-43 30 -334 44 0
-43 30 334 -44 0
43 -30 -335 44 0
43 -30 335 -44 0
43 30 -336 44 0
43 30 336 -44 0
-44 -31 -45 0
-44 31 -45 0
44 -31 -45 0
44 31 45 0
-45 -32 46 0
-45 32 46 0
45 -32 -46 0
45 32 46 0
-46 -33 -47 0
-46 33 47 0
46 -33 47 0
46 33 47 0
-47 -34 -48 0
-47 34 48 0
47 -34 48 0
47 34 -48 0
-48 -35 -49 0
-48 35 -49 0
48 -35 -49 0
48 35 49 0
-49 -36 -50 0
-49 36 -50 0
49 -36 50 0
49 36 -50 0
-50 -37 -51 0
-50 37 -51 0
50 -37 51 0
50 37 -51 0
-51 -38 52 0
-51 38 52 0
51 -38 -52 0
51 38 52 0
-52 -39 -53 0
-52 39 -53 0
52 -39 -53 0
52 39 53 0
-53 -40 -54 0
-53 40 54 0
53 -40 -54 0
53 40 54 0
-54 -41 55 0
-54 41 55 0
54 -41 -55 0
54 41 55 0
-55 -42 56 0
-55 42 -56 0
55 -42 -56 0
55 42 -56 0
-43 57 0
43 -57 0
-57 -44 -58 0
-57 44 -58 0
57 -44 58 0
57 44 58 0
-58 -45 -59 0
-58 45 59 0
58 -45 -59 0
58 45 59 0
-59 -46 -60 0
-59 46 60 0
59 -46 60 0
59 46 60 0
-60 -47 -61 0
-60 47 -61 0
60 -47 -61 0
60 47 61 0
-61 -48 -62 0
-61 48 -62 0
61 -48 62 0
61 48 62 0
-62 -49 -407 63 0
-62 -49 407 -63 0
-62 49 -408 63 0
-62 49 408 -63 0
62 -49 -409 63 0
62 -49 409 -63 0
62 49 -410 63 0
62 49 410 -63 0
-63 -50 -64 0
-63 50 64 0
63 -50 64 0
63 50 64 0
-64 -51 -65 0
-64 51 -65 0
64 -51 -65 0
64 51 65 0
-65 -52 66 0
-65 52 66 0
65 -52 66 0
65 52 -66 0
-66 -53 67 0
-66 53 -67 0
66 -53 67 0
66 53 67 0
-67 -54 -68 0
-67 54 68 0
67 -54 -68 0
67 54 -68 0
-68 -55 -69 0
-68 55 -69 0
68 -55 69 0
68 55 69 0
-69 -56 70 0
-69 56 70 0
69 -56 -70 0
69 56 70 0
-57 -71 0
57 71 0
-71 -58 72 0
-71 58 -72 0
71 -58 -72 0
71 58 72 0
-72 -59 73 0
-72 59 -73 0
72 -59 -73 0
72 59 -73 0
-73 -60 -74 0
-73 60 74 0
73 -60 74 0
73 60 -74 0
-74 -61 75 0
-74 61 -75 0
74 -61 75 0
74 61 -75 0
-75 -62 76 0
-75 62 76 0
75 -62 76 0
75 62 -76 0
-76 -63 77 0
-76 63 -77 0
76 -63 77 0
76 63 -77 0
-77 -64 -78 0
-77 64 78 0
77 -64 78 0
77 64 78 0
-78 -65 -79 0
-78 65 -79 0
78 -65 79 0
78 65 -79 0
-79 -66 80 0
-79 66 -80 0
79 -66 80 0
79 66 80 0
-80 -67 -81 0
-80 67 81 0
80 -67 -81 0
80 67 -81 0
-81 -68 -82 0
-81 68 82 0
81 -68 82 0
81 68 -82 0
-82 -69 -83 0
-82 69 83 0
82 -69 83 0
82 69 -83 0
-83 -70 84 0
-83 70 84 0
83 -70 -84 0
83 70 -84 0
-71 85 0
71 -85 0
-85 -72 -86 0
-85 72 86 0
85 -72 86 0
85 72 86 0
-86 -73 -499 87 0
-86 -73 499 -87 0
-86 73 -500 87 0
-86 73 500 -87 0
86 -73 -501 87 0
86 -73 501 -87 0
86 73 -502 87 0
86 73 502 -87 0
-87 -74 88 0
-87 74 -88 0
87 -74 -88 0
87 74 -88 0
-88 -75 -89 0
-88 75 89 0
88 -75 89 0
88 75 89 0
-89 -76 90 0
-89 76 90 0
89 -76 90 0
89 76 -90 0
-90 -77 -91 0
-90 77 91 0
90 -77 91 0
90 77 91 0
-91 -78 -92 0
-91 78 -92 0
91 -78 -92 0
91 78 92 0
-92 -79 -523 93 0
-92 -79 523 -93 0
-92 79 -524 93 0
-92 79 524 -93 0
92 -79 -525 93 0
92 -79 525 -93 0
92 79 -526 93 0
92 79 526 -93 0
-93 -80 -94 0
-93 80 -94 0
93 -80 94 0
93 80 -94 0
-94 -81 -95 0
-94 81 95 0
94 -81 -95 0
94 81 95 0
-95 -82 -96 0
-95 82 -96 0
95 -82 96 0
95 82 -96 0
-96 -83 97 0
-96 83 -97 0
96 -83 97 0
96 83 -97 0
-97 -84 -98 0
-97 84 -98 0
97 -84 98 0
97 84 98 0
-85 99 0
85 -99 0
-99 -86 -100 0
-99 86 -100 0
99 -86 100 0
99 86 100 0
-100 -87 101 0
-100 87 -101 0
100 -87 101 0
100 87 101 0
-101 -88 -557 102 0
-101 -88 557 -102 0
-101 88 -558 102 0
-101 88 558 -102 0
101 -88 -559 102 0
101 -88 559 -102 0
101 88 -560 102 0
101 88 560 -102 0
-102 -89 103 0
-102 89 103 0
102 -89 -103 0
102 89 103 0
-103 -90 -104 0
-103 90 104 0
103 -90 -104 0
103 90 104 0
-104 -91 -105 0
-104 91 -105 0
104 -91 -105 0
104 91 105 0
-105 -92 -106 0
-105 92 -106 0
105 -92 -106 0
105 92 106 0
-106 -93 107 0
-106 93 107 0
106 -93 107 0
106 93 -107 0
-107 -94 108 0
-107 94 -108 0
107 -94 -108 0
107 94 -108 0
-108 -95 109 0
-108 95 -109 0
108 -95 -109 0
108 95 109 0
-109 -96 110 0
-109 96 -110 0
109 -96 110 0
109 96 110 0
-110 -97 111 0
-110 97 111 0
110 -97 111 0
110 97 -111 0
-111 -98 112 0
-111 98 -112 0
111 -98 -112 0
111 98 112 0
-99 113 0
99 -113 0
-113 -100 -114 0
-113 100 -114 0
113 -100 114 0
113 100 -114 0
-114 -101 -607 115 0
-114 -101 607 -115 0
-114 101 -608 115 0
-114 101 608 -115 0
114 -101 -609 115 0
114 -101 609 -115 0
114 101 -610 115 0
114 101 610 -115 0
-115 -102 -116 0
-115 102 116 0
115 -102 -116 0
115 102 116 0
-116 -103 117 0
-116 103 -117 0
116 -103 117 0
116 103 -117 0
-117 -104 118 0
-117 104 118 0
117 -104 -118 0
117 104 -118 0
-118 -105 -119 0
-118 105 119 0
118 -105 -119 0
118 105 119 0
-119 -106 120 0
-119 106 120 0
119 -106 120 0
119 106 -120 0
-120 -107 121 0
-120 107 121 0
120 -107 121 0
120 107 -121 0
-121 -108 122 0
-121 108 -122 0
121 -108 122 0
121 108 -122 0
-122 -109 -639 123 0
-122 -109 639 -123 0
-122 109 -640 123 0
-122 109 640 -123 0
122 -109 -641 123 0
122 -109 641 -123 0
122 109 -642 123 0
122 109 642 -123 0
-123 -110 -643 124 0
-123 -110 643 -124 0
-123 110 -644 124 0
-123 110 644 -124 0
123 -110 -645 124 0
123 -110 645 -124 0
123 110 -646 124 0
123 110 646 -124 0
-124 -111 125 0
-124 111 -125 0
124 -111 125 0
124 111 -125 0
-125 -112 -126 0
-125 112 -126 0
125 -112 126 0
125 112 -126 0
-113 127 0
113 -127 0
-127 -114 128 0
-127 114 -128 0
127 -114 -128 0
127 114 -128 0
-128 -115 -129 0
-128 115 -129 0
128 -115 129 0
128 115 -129 0
-129 -116 -665 130 0
-129 -116 665 -130 0
-129 116 -666 130 0
-129 116 666 -130 0
129 -116 -667 130 0
129 -116 667 -130 0
129 116 -668 130 0
129 116 668 -130 0
-130 -117 -131 0
-130 117 -131 0
130 -117 131 0
130 117 131 0
-131 -118 132 0
-131 118 -132 0
131 -118 -132 0
131 118 132 0
-132 -119 -133 0
-132 119 133 0
132 -119 -133 0
132 119 133 0
-133 -120 134 0
-133 120 -134 0
133 -120 -134 0
133 120 134 0
-134 -121 135 0
-134 121 135 0
134 -121 135 0
134 121 -135 0
-135 -122 136 0
-135 122 136 0
135 -122 -136 0
135 122 136 0
-136 -123 -693 137 0
-136 -123 693 -137 0
-136 123 -694 137 0
-136 123 694 -137 0
136 -123 -695 137 0
136 -123 695 -137 0
136 123 -696 137 0
136 123 696 -137 0
-137 -124 138 0
-137 124 -138 0
137 -124 -138 0
137 124 -138 0
-138 -125 -139 0
-138 125 139 0
138 -125 -139 0
138 125 -139 0
-139 -126 140 0
-139 126 -140 0
139 -126 140 0
139 126 -140 0
-127 -141 0
127 141 0
-141 -128 -142 0
-141 128 -142 0
141 -128 -142 0
141 128 142 0
-142 -129 -715 143 0
-142 -129 715 -143 0
-142 129 -716 143 0
-142 129 716 -143 0
142 -129 -717 143 0
142 -129 717 -143 0
142 129 -718 143 0
142 129 718 -143 0
-143 -130 -144 0
-143 130 -144 0
143 -130 144 0
143 130 144 0
-144 -131 -145 0
-144 131 145 0
144 -131 -145 0
144 131 -145 0
-145 -132 -146 0
-145 132 -146 0
145 -132 146 0
145 132 146 0
-146 -133 -147 0
-146 133 147 0
146 -133 -147 0
146 133 -147 0
-147 -134 148 0
-147 134 -148 0
147 -134 -148 0
147 134 148 0
-148 -135 -149 0
-148 135 -149 0
148 -135 -149 0
148 135 149 0
-149 -136 150 0
-149 136 -150 0
149 -136 -150 0
149 136 -150 0
-150 -137 -747 151 0
-150 -137 747 -151 0
-150 137 -748 151 0
-150 137 748 -151 0
150 -137 -749 151 0
150 -137 749 -151 0
150 137 -750 151 0
150 137 750 -151 0
-151 -138 -152 0
-151 138 -152 0
151 -138 152 0
151 138 152 0
-152 -139 -153 0
-152 139 153 0
152 -139 -153 0
152 139 153 0
-153 -140 -154 0
-153 140 -154 0
153 -140 154 0
153 140 -154 0
-141 155 0
141 -155 0
-155 -142 156 0
-155 142 156 0
155 -142 -156 0
155 142 156 0
-156 -143 -157 0
-156 143 157 0
156 -143 157 0
156 143 157 0
-157 -144 158 0
-157 144 158 0
157 -144 158 0
157 144 -158 0
-158 -145 159 0
-158 145 -159 0
158 -145 -159 0
158 145 -159 0
-159 -146 160 0
-159 146 -160 0
159 -146 160 0
159 146 -160 0
-160 -147 161 0
-160 147 161 0
160 -147 -161 0
160 147 -161 0
-161 -148 -162 0
-161 148 162 0
161 -148 -162 0
161 148 -162 0
-162 -149 163 0
-162 149 -163 0
162 -149 163 0
162 149 -163 0
-163 -150 -797 164 0
-163 -150 797 -164 0
-163 150 -798 164 0
-163 150 798 -164 0
163 -150 -799 164 0
163 -150 799 -164 0
163 150 -800 164 0
163 150 800 -164 0
-164 -151 -801 165 0
-164 -151 801 -165 0
-164 151 -802 165 0
-164 151 802 -165 0
164 -151 -803 165 0
164 -151 803 -165 0
164 151 -804 165 0
164 151 804 -165 0
-165 -152 166 0
-165 152 -166 0
165 -152 -166 0
165 152 -166 0
-166 -153 167 0
-166 153 -167 0
166 -153 -167 0
166 153 -167 0
-167 -154 168 0
-167 154 168 0
167 -154 -168 0
167 154 168 0
-155 -817 169 0
-155 817 -169 0
155 -818 169 0
155 818 -169 0
-169 -156 170 0
-169 156 -170 0
169 -156 -170 0
169 156 -170 0
-170 -157 -171 0
-170 157 171 0
170 -157 -171 0
170 157 -171 0
-171 -158 -172 0
-171 158 -172 0
171 -158 172 0
171 158 172 0
-172 -159 -173 0
-172 159 173 0
172 -159 -173 0
172 159 -173 0
-173 -160 -174 0
-173 160 174 0
173 -160 174 0
173 160 174 0
-174 -161 -175 0
-174 161 175 0
174 -161 175 0
174 161 -175 0
-175 -162 176 0
-175 162 -176 0
175 -162 176 0
175 162 176 0
-176 -163 -177 0
-176 163 177 0
176 -163 177 0
176 163 -177 0
-177 -164 -178 0
-177 164 178 0
177 -164 -178 0
177 164 -178 0
-178 -165 -855 179 0
-178 -165 855 -179 0
-178 165 -856 179 0
-178 165 856 -179 0
178 -165 -857 179 0
178 -165 857 -179 0
178 165 -858 179 0
178 165 858 -179 0
-179 -166 180 0
-179 166 -180 0
179 -166 180 0
179 166 -180 0
-180 -167 181 0
-180 167 181 0
180 -167 181 0
180 167 -181 0
-181 -168 -182 0
-181 168 -182 0
181 -168 182 0
181 168 182 0
-169 183 0
169 -183 0
-183 -170 184 0
-183 170 184 0
183 -170 -184 0
183 170 -184 0
-184 -171 185 0
-184 171 -185 0
184 -171 185 0
184 171 185 0
-185 -172 -186 0
-185 172 186 0
185 -172 186 0
185 172 186 0
-186 -173 -187 0
-186 173 187 0
186 -173 -187 0
186 173 -187 0
-187 -174 188 0
-187 174 -188 0
187 -174 188 0
187 174 -188 0
-188 -175 189 0
-188 175 189 0
188 -175 -189 0
188 175 -189 0
-189 -176 190 0
-189 176 190 0
189 -176 -190 0
189 176 190 0
-190 -177 191 0
-190 177 -191 0
190 -177 -191 0
190 177 191 0
-191 -178 -192 0
-191 178 -192 0
191 -178 -192 0
191 178 192 0
-192 -179 -193 0
-192 179 -193 0
192 -179 193 0
192 179 -193 0
-193 -180 194 0
-193 180 -194 0
193 -180 -194 0
193 180 194 0
-194 -181 195 0
-194 181 -195 0
194 -181 195 0
194 181 195 0
-195 -182 196 0
-195 182 -196 0
195 -182 -196 0
195 182 196 0
196 0
