data/benchmarks/bayes/90-14-2-q.gr
p tw 924 749
67 68
177 190
99 100
26 39
136 149
122 641
59 73
150 749
159 160
8 9
118 131
40 41
77 90
27 269
100 101
151 802
132 133
92 106
192 193
143 718
41 42
151 164
73 74
73 501
110 123
33 47
133 134
142 718
49 409
51 64
129 667
125 139
74 75
106 107
143 156
165 858
66 80
25 317
115 610
110 644
166 167
15 16
47 48
158 172
43 334
7 21
107 108
26 272
99 113
48 49
80 81
163 799
40 54
101 558
132 146
81 82
25 38
73 87
173 174
22 23
165 179
14 28
114 115
155 818
106 120
142 717
179 855
55 56
47 61
147 148
122 640
123 694
139 153
79 526
151 801
80 94
172 186
165 803
39 318
137 750
181 182
87 502
129 666
173 187
84 97
63 410
176 189
110 643
158 171
43 333
117 130
21 22
147 161
58 71
116 668
113 114
150 163
132 145
54 55
91 104
30 335
146 147
32 45
165 178
87 88
124 137
179 180
106 119
65 78
142 716
114 608
8 209
88 89
120 121
157 170
6 19
123 693
180 181
29 30
139 152
61 62
79 525
98 111
169 818
21 35
121 122
153 154
80 93
2 3
109 642
39 52
113 127
62 63
172 185
165 802
94 95
131 144
54 68
13 27
39 317
3 4
93 526
137 749
35 36
87 501
72 85
146 160
105 119
95 96
127 128
164 177
63 409
87 101
187 188
46 60
36 37
68 69
179 193
179 858
28 42
151 750
124 644
128 129
160 161
120 134
150 800
79 93
69 70
101 102
116 667
61 75
161 162
20 34
10 11
153 167
2 16
102 103
30 334
94 108
194 195
53 67
43 44
86 500
35 49
135 136
127 141
38 51
62 408
86 100
76 77
114 607
68 82
178 857
27 41
38 316
160 174
169 817
137 694
101 115
12 25
60 74
109 641
165 801
101 609
1 15
13 26
39 316
93 525
105 118
123 642
9 10
46 59
151 749
88 559
124 643
138 151
19 32
150 799
79 92
134 135
171 184
20 33
3 200
130 668
75 76
112 125
30 333
164 800
16 17
53 66
44 335
108 109
86 499
145 158
129 717
123 646
49 50
62 407
86 99
109 110
178 191
178 856
27 40
38 315
92 524
50 51
82 83
119 132
42 56
137 693
142 143
23 24
134 148
60 73
83 84
115 116
101 608
152 165
75 89
175 176
34 48
164 804
24 25
93 524
93 106
13 272
16 30
116 117
7 210
123 641
108 122
67 81
57 58
167 168
89 90
126 139
49 63
159 173
149 150
88 558
8 22
30 31
100 114
90 91
82 96
41 55
31 32
141 142
3 199
130 667
102 559
23 37
133 147
123 124
115 129
164 799
74 88
64 65
174 175
44 334
56 70
166 180
156 157
15 29
5 6
123 645
129 716
150 748
59 72
107 121
97 98
167 181
89 103
189 190
48 62
178 855
148 149
92 523
92 105
30 44
143 717
140 154
73 500
33 46
81 95
136 696
141 155
49 408
125 138
101 607
22 36
122 123
34 47
164 803
165 857
66 79
25 316
115 609
114 128
174 188
7 20
123 640
55 69
26 271
67 80
159 172
8 21
163 798
40 53
27 272
63 64
100 113
101 557
148 162
4 5
41 54
73 86
102 558
133 146
181 195
14 27
164 798
155 817
37 38
74 87
122 136
44 333
166 179
47 60
150 747
122 639
107 120
130 131
167 180
11 12
48 61
140 153
143 716
163 164
73 499
44 45
81 94
136 695
49 407
129 665
173 186
22 35
155 156
165 856
25 315
115 608
114 127
137 138
174 187
96 97
18 19
55 68
26 270
88 102
188 189
147 160
180 194
170 171
29 43
129 130
163 797
27 271
151 804
121 135
111 112
148 161
62 76
162 163
154 168
144 145
3 17
181 194
103 104
95 109
85 86
195 196
122 135
110 646
155 169
142 715
177 178
36 50
136 137
43 336
96 110
128 142
118 119
77 78
79 524
21 34
69 83
169 170
129 143
161 175
151 152
101 560
10 24
110 111
54 67
102 116
137 748
51 52
87 500
146 159
162 176
43 57
143 144
103 117
63 408
87 100
135 149
179 192
179 857
28 41
76 90
26 269
88 101
136 150
120 133
122 642
123 696
168 182
180 193
116 666
77 91
61 74
151 803
121 134
169 183
153 166
2 15
25 26
62 75
110 124
94 107
154 167
3 16
51 65
35 48
95 108
17 18
143 157
110 645
9 23
36 49
43 335
68 81
128 141
160 173
79 523
69 82
101 114
109 640
161 174
10 23
102 115
39 315
137 747
87 499
176 177
63 407
135 148
17 31
117 118
179 856
114 610
151 748
76 89
109 123
58 59
123 695
150 798
168 181
191 192
50 64
116 665
150 151
142 156
91 92
165 804
83 97
183 184
32 33
175 189
165 166
24 38
124 125
84 98
116 130
65 66
176 190
9 22
57 71
157 158
6 7
124 646
117 131
149 163
139 140
58 72
42 55
90 104
190 191
39 40
150 164
134 147
109 639
182 196
172 173
31 45
131 132
91 105
75 88
123 137
30 336
93 523
72 73
13 271
16 29
32 46
64 78
164 165
7 209
86 502
124 138
108 121
156 170
5 19
17 30
62 410
65 79
49 62
114 609
8 210
88 557
97 111
151 747
109 122
157 171
38 318
6 20
150 797
50 63
98 112
82 95
137 696
142 155
130 666
39 53
23 36
83 96
131 145
115 128
175 188
24 37
72 86
56 69
129 715
123 644
116 129
38 39
164 178
89 102
124 645
149 162
71 72
30 43
63 77
90 103
12 13
4 18
182 195
104 105
31 44
13 14
123 136
45 46
164 802
105 106
37 51
13 270
64 77
86 501
123 639
46 47
156 169
78 79
5 18
38 52
62 409
70 84
138 139
97 110
19 20
130 144
178 858
79 80
11 25
38 317
92 526
71 85
171 172
20 21
137 695
52 53
163 177
12 26
130 665
44 58
102 557
104 118
101 610
164 797
53 54
45 59
145 146
26 27
137 151
123 643
86 87
18 32
78 92
178 179
27 28
138 152
88 560
170 184
19 33
119 120
2 200
143 715
63 76
111 125
60 61
171 185
136 694
4 17
52 66
152 153
1 2
112 126
144 158
164 801
93 94
165 855
115 607
37 50
13 269
85 99
44 336
185 186
145 159
177 191
129 718
26 40
150 750
70 83
186 187
118 132
130 143
178 192
27 270
11 24
92 525
119 133
151 165
73 502
163 176
44 57
49 410
104 117
129 668
152 166
25 318
45 58
93 107
193 194
137 150
59 60
96 109
18 31
78 91
126 140
170 183
163 800
92 93
129 142
2 199
101 559
184 185
111 124
33 34
25 39
136 693
125 126
52 65
162 175
102 560
34 35
144 157
66 67
103 116
158 159
7 8
